; benchmark generated from python API
(set-info :status unknown)
(declare-sort term 0)
 (declare-sort quorum 0)
 (declare-sort index 0)
 (declare-sort server 0)
 (declare-fun indlt (index index) Bool)
(declare-fun indzero () index)
(declare-fun lte (term term) Bool)
(declare-fun succ (index index) Bool)
(declare-fun termzero () term)
(declare-fun member (server quorum) Bool)
(declare-fun indlte (index index) Bool)
(declare-fun __committed (index term) Bool)
(declare-fun __log (server index) term)
(declare-fun __currentTerm (server) term)
(declare-fun __leader (server) Bool)
(declare-fun __loglen (server) index)
(assert
 (let (($x5118 (forall ((X32 index) )(let (($x2095 (indlt indzero X32)))
 (or (= X32 indzero) $x2095)))
 ))
 (let (($x4517 (forall ((Y27 index) (Z28 index) (X26 index) )(let (($x948 (indlt X26 Z28)))
 (let (($x1998 (indlt Y27 Z28)))
 (let (($x14793 (indlt X26 Y27)))
 (let (($x14795 (and $x14793 $x1998)))
 (=> $x14795 $x948))))))
 ))
 (let (($x14778 (forall ((X30 index) (Y31 index) )(let (($x948 (indlt Y31 X30)))
 (let (($x1166 (= X30 Y31)))
 (let (($x1423 (indlt X30 Y31)))
 (or $x1423 $x1166 $x948)))))
 ))
 (let (($x5157 (forall ((X23 term) (Y term) (Z term) )(let (($x1963 (lte X23 Z)))
 (let (($x13546 (lte Y Z)))
 (let (($x13501 (not $x13546)))
 (let (($x14499 (not (lte X23 Y))))
 (or $x14499 $x13501 $x1963))))))
 ))
 (let (($x2006 (forall ((X33 index) (Y34 index) (Z35 index) )(let (($x2056 (indlt X33 Z35)))
 (let (($x1870 (and $x2056 (not (and (indlt X33 Y34) (indlt Y34 Z35))))))
 (let (($x5115 (succ X33 Z35)))
 (=> $x5115 $x1870)))))
 ))
 (let (($x5223 (forall ((X22 term) )(lte X22 X22))
 ))
 (let (($x4413 (forall ((X21 term) )(lte termzero X21))
 ))
 (let (($x14536 (forall ((Q1 quorum) (Q2 quorum) )(exists ((N server) )(let (($x9604 (member N Q2)))
 (let (($x1891 (member N Q1)))
 (and $x1891 $x9604))))
 )
 ))
 (let (($x2094 (forall ((A index) (B index) )(let (($x1166 (= A B)))
 (let (($x1423 (indlt A B)))
 (let (($x2168 (indlte A B)))
 (let (($x2177 (= $x2168 $x1423)))
 (or $x2177 $x1166))))))
 ))
 (let (($x1165 (forall ((Y term) (X25 term) )(let (($x13546 (lte Y X25)))
 (let (($x1235 (lte X25 Y)))
 (or $x1235 $x13546))))
 ))
 (let (($x1462 (forall ((X29 index) )(let (($x1996 (indlt X29 X29)))
 (not $x1996)))
 ))
 (let (($x13566 (forall ((Y term) (X24 term) )(let (($x13546 (lte Y X24)))
 (let (($x13501 (not $x13546)))
 (or (not (lte X24 Y)) $x13501 (= X24 Y)))))
 ))
 (let (($x62287 (and $x13566 $x1462 $x1165 $x2094 $x14536 $x4413 $x5223 $x2006 $x5157 $x14778 $x4517 $x5118)))
 (let (($x21527 (exists ((|Q:index:i:0| index) )(__committed |Q:index:i:0| termzero))
 ))
 (let (($x3849591 (not $x21527)))
 (let (($x1292885 (exists ((|Q:server:i:0| server) )(not (= (__log |Q:server:i:0| indzero) termzero)))
 ))
 (let (($x2055821 (not $x1292885)))
 (let (($x24929 (exists ((|Q:server:i:0| server) )(let ((?x903 (__currentTerm |Q:server:i:0|)))
 (let (($x25177 (= ?x903 termzero)))
 (let (($x814 (__leader |Q:server:i:0|)))
 (and $x814 $x25177)))))
 ))
 (let (($x1762642 (not $x24929)))
 (let (($x1224576 (exists ((|Q:index:i:1| index) (|Q:server:i:0| server) )(let (($x25023 (not (= (__log |Q:server:i:0| (__loglen |Q:server:i:0|)) (__currentTerm |Q:server:i:0|)))))
 (and $x25023 (= (__log |Q:server:i:0| |Q:index:i:1|) (__currentTerm |Q:server:i:0|)))))
 ))
 (let (($x1764430 (not $x1224576)))
 (let (($x12072 (forall ((|Q:quorum:i:0| quorum) )(exists ((|Q:term:i:0| term) (|Q:term:i:1| term) (|Q:server:i:1| server) (|Q:server:i:0| server) )(let (($x27711 (not (lte |Q:term:i:1| |Q:term:i:0|))))
 (let (($x15647 (member |Q:server:i:0| |Q:quorum:i:0|)))
 (let ((?x6502 (__currentTerm |Q:server:i:1|)))
 (let (($x6431 (= ?x6502 |Q:term:i:1|)))
 (let ((?x903 (__currentTerm |Q:server:i:0|)))
 (let (($x1059 (= ?x903 |Q:term:i:0|)))
 (and $x1059 $x6431 $x15647 $x27711))))))))
 )
 ))
 (let (($x3253239 (not $x12072)))
 (let (($x2348852 (forall ((|Q:quorum:i:0| quorum) )(exists ((|Q:index:i:0| index) (|Q:term:i:0| term) (|Q:term:i:1| term) (|Q:index:i:1| index) (|Q:server:i:0| server) )(let (($x1741538 (not (= |Q:term:i:0| |Q:term:i:1|))))
 (let (($x1952460 (__committed |Q:index:i:1| |Q:term:i:0|)))
 (let ((?x2058 (__loglen |Q:server:i:0|)))
 (let (($x1941925 (= ?x2058 |Q:index:i:0|)))
 (let ((?x1269042 (__log |Q:server:i:0| |Q:index:i:0|)))
 (let (($x1955800 (= ?x1269042 |Q:term:i:1|)))
 (and $x1955800 $x1941925 $x1952460 (member |Q:server:i:0| |Q:quorum:i:0|) $x1741538))))))))
 )
 ))
 (let (($x2133173 (not $x2348852)))
 (let (($x1201131 (exists ((|Q:index:i:0| index) (|Q:server:i:0| server) )(let (($x814 (__leader |Q:server:i:0|)))
 (let (($x25104 (not $x814)))
 (let (($x1304218 (not (= termzero (__log |Q:server:i:0| |Q:index:i:0|)))))
 (and $x1304218 $x25104)))))
 ))
 (let (($x1736187 (not $x1201131)))
 (let (($x1198682 (exists ((|Q:index:i:0| index) (|Q:server:i:0| server) )(let (($x1304218 (not (= termzero (__log |Q:server:i:0| |Q:index:i:0|)))))
 (and $x1304218 (not (= (__currentTerm |Q:server:i:0|) (__log |Q:server:i:0| |Q:index:i:0|))) (not (= termzero (__currentTerm |Q:server:i:0|))))))
 ))
 (let (($x2753517 (not $x1198682)))
 (let (($x24674 (exists ((|Q:server:i:0| server) )(let (($x814 (__leader |Q:server:i:0|)))
 (let (($x25023 (not (= (__log |Q:server:i:0| (__loglen |Q:server:i:0|)) (__currentTerm |Q:server:i:0|)))))
 (and $x25023 $x814 (not (= indzero (__loglen |Q:server:i:0|)))))))
 ))
 (let (($x3635796 (not $x24674)))
 (let (($x2975943 (forall ((I index) (T term) (X server) )(let (($x2035802 (= (__log X I) T)))
 (let (($x3580170 (not (= T (__currentTerm X)))))
 (let ((?x903 (__currentTerm X)))
 (let (($x1736501 (lte T ?x903)))
 (let (($x814 (__leader X)))
 (let (($x337132 (__committed I T)))
 (=> (and $x337132 $x814 (and $x1736501 $x3580170)) $x2035802))))))))
 ))
 (let (($x3689454 (and $x2975943 $x3635796 $x2753517 $x1736187 $x2133173 $x3253239 $x1764430 $x1762642 $x2055821 $x3849591)))
 (let (($x2930742 (not $x3689454)))
 (let (($x25456 (forall ((V036 index) (V137 term) )(let (($x4907 (__committed V036 V137)))
 (not $x4907)))
 ))
 (let (($x25268 (forall ((V0 server) (V1 index) )(let ((?x934 (__log V0 V1)))
 (= ?x934 termzero)))
 ))
 (let (($x27173 (forall ((V0 server) )(let ((?x2058 (__loglen V0)))
 (= ?x2058 indzero)))
 ))
 (let (($x24816 (forall ((V0 server) )(let ((?x903 (__currentTerm V0)))
 (= ?x903 termzero)))
 ))
 (let (($x24953 (forall ((V0 server) )(let (($x814 (__leader V0)))
 (not $x814)))
 ))
 (let (($x1089 (and $x24953 $x24816 $x27173 $x25268 $x25456)))
 (and $x1089 $x2930742 $x62287))))))))))))))))))))))))))))))))))))))))))
(check-sat)
